9
0, 311, 321, 603, 433, 568, 229, 514, 327
311, 0, 580, 508, 597, 488, 291, 732, 292
321, 580, 0, 609, 210, 885, 545, 206, 648
603, 508, 609, 0, 451, 996, 746, 610, 785
433, 597, 210, 451, 0, 993, 660, 164, 750
568, 488, 885, 996, 993, 0, 340, 1083, 243
229, 291, 545, 746, 660, 340, 0, 743, 107
514, 732, 206, 610, 164, 1083, 743, 0, 842
327, 292, 648, 785, 750, 243, 107, 842, 0
